
Gurobi 10.0.1 (linux64) logging started Fri May 12 02:27:20 2023

Set parameter LogFile to value "logFiles/N-1L-B/N-1L-13U-10F-23V-120D-combined.log"
Gurobi Optimizer version 10.0.1 build v10.0.1rc0 (linux64)

CPU model: Intel(R) Xeon(R) Gold 5115 CPU @ 2.40GHz, instruction set [SSE2|AVX|AVX2|AVX512]
Thread count: 20 physical cores, 40 logical processors, using up to 20 threads

Optimize a model with 105533 rows, 909594 columns and 8129313 nonzeros
Model fingerprint: 0x93eb0fa2
Variable types: 1774 continuous, 907820 integer (907820 binary)
Coefficient statistics:
  Matrix range     [1e+00, 2e+05]
  Objective range  [4e+01, 3e+07]
  Bounds range     [1e+00, 1e+00]
  RHS range        [1e+00, 2e+06]
Presolve removed 33144 rows and 68676 columns (presolve time = 5s) ...
Presolve removed 40467 rows and 130560 columns (presolve time = 10s) ...
Presolve removed 76527 rows and 144017 columns (presolve time = 15s) ...
Presolve removed 76528 rows and 144017 columns (presolve time = 20s) ...
Presolve removed 76528 rows and 144017 columns (presolve time = 25s) ...
Presolve removed 76466 rows and 143999 columns
Presolve time: 27.78s
Presolved: 29067 rows, 765595 columns, 4158160 nonzeros
Variable types: 1639 continuous, 763956 integer (763956 binary)
Deterministic concurrent LP optimizer: primal simplex, dual simplex, and barrier
Showing barrier log only...

Root barrier log...

Ordering time: 1.52s

Barrier statistics:
 AA' NZ     : 1.889e+06
 Factor NZ  : 7.286e+06 (roughly 400 MB of memory)
 Factor Ops : 1.172e+10 (less than 1 second per iteration)
 Threads    : 17

                  Objective                Residual
Iter       Primal          Dual         Primal    Dual     Compl     Time
   0  -1.75352375e+16  1.62250218e+12  2.21e+09 3.90e+05  1.06e+11    37s
   1  -3.54866060e+15  3.59605473e+12  4.48e+08 1.45e+05  2.19e+10    37s
   2  -4.66723768e+13  2.48614230e+12  5.98e+06 2.10e-09  2.94e+08    38s
   3  -6.80242536e+12  9.77293729e+11  8.70e+05 1.86e-09  4.35e+07    39s
   4  -2.52178450e+12  6.48642333e+11  3.22e+05 9.55e-09  1.63e+07    39s
   5  -1.64422120e+12  6.22887393e+11  2.10e+05 1.48e-08  1.08e+07    39s
   6  -4.71774846e+11  5.27853393e+11  6.03e+04 1.59e-08  3.28e+06    40s
   7  -1.82759609e+11  4.32475529e+11  2.34e+04 1.87e-08  1.37e+06    40s
   8  -4.02370198e+10  2.53231238e+11  5.31e+03 1.22e-08  3.84e+05    41s
   9  -1.45938130e+10  1.75737838e+11  2.05e+03 1.74e-08  1.91e+05    41s
  10  -4.01819467e+09  4.93577949e+10  7.12e+02 1.59e-08  5.19e+04    41s
  11  -1.35724757e+09  4.12738686e+10  3.75e+02 1.49e-08  3.64e+04    42s
  12   3.81184289e+08  1.78200912e+10  1.55e+02 7.63e-09  1.44e+04    42s
  13   8.57679514e+08  1.08567436e+10  9.48e+01 1.63e-08  8.28e+03    43s
  14   1.21269257e+09  9.11027987e+09  5.11e+01 1.44e-08  6.10e+03    43s
  15   1.34537347e+09  7.87694514e+09  3.52e+01 1.37e-08  4.93e+03    44s
  16   1.40975519e+09  6.74950316e+09  2.76e+01 1.75e-08  4.03e+03    44s
  17   1.42503546e+09  6.30221051e+09  2.58e+01 1.58e-08  3.70e+03    44s
  18   1.44830884e+09  5.77536011e+09  2.31e+01 1.44e-08  3.31e+03    45s
  19   1.52278427e+09  5.13097901e+09  1.44e+01 1.60e-08  2.67e+03    45s
  20   1.56064111e+09  4.17504802e+09  9.93e+00 2.49e-08  1.95e+03    46s
  21   1.57302287e+09  3.67842937e+09  8.51e+00 2.54e-08  1.59e+03    46s
  22   1.58682876e+09  3.23619743e+09  7.06e+00 2.13e-08  1.26e+03    47s
  23   1.61186180e+09  2.99974410e+09  5.32e+00 2.95e-08  1.04e+03    47s
  24   1.61867446e+09  2.64523080e+09  4.69e+00 3.24e-08  7.76e+02    48s
  25   1.63187144e+09  2.58325005e+09  3.54e+00 2.39e-08  7.00e+02    48s
  26   1.64530128e+09  2.31913485e+09  2.25e+00 3.42e-08  4.84e+02    49s
  27   1.65183642e+09  2.22018416e+09  1.72e+00 3.84e-08  4.01e+02    50s
  28   1.66162052e+09  2.04712125e+09  1.24e+00 2.59e-08  2.68e+02    50s
  29   1.66144906e+09  1.99770926e+09  1.20e+00 3.07e-08  2.34e+02    51s
  30   1.66639328e+09  1.94318124e+09  8.16e-01 2.72e-08  1.89e+02    51s
  31   1.67249278e+09  1.86263474e+09  5.08e-01 3.32e-08  1.28e+02    52s
  32   1.67495358e+09  1.82795953e+09  3.96e-01 3.95e-08  1.02e+02    52s
  33   1.67916808e+09  1.80066323e+09  2.28e-01 4.03e-08  8.07e+01    53s
  34   1.68001319e+09  1.78831378e+09  2.06e-01 3.55e-08  7.18e+01    53s
  35   1.68158594e+09  1.77453803e+09  1.66e-01 3.53e-08  6.15e+01    54s
  36   1.68175401e+09  1.77298651e+09  1.62e-01 4.97e-08  6.03e+01    54s
  37   1.68269001e+09  1.75693216e+09  1.43e-01 4.64e-08  4.90e+01    55s
  38   1.68446199e+09  1.75484666e+09  1.20e-01 5.91e-08  4.64e+01    55s
  39   1.68700802e+09  1.74169200e+09  8.47e-02 6.58e-08  3.60e+01    56s
  40   1.68930222e+09  1.73474205e+09  5.96e-02 7.23e-08  2.99e+01    56s
  41   1.68962045e+09  1.73261326e+09  5.59e-02 7.48e-08  2.82e+01    57s
  42   1.69091303e+09  1.72499066e+09  4.56e-02 6.90e-08  2.24e+01    57s
  43   1.69245026e+09  1.72282667e+09  3.42e-02 6.56e-08  1.99e+01    58s
  44   1.69346337e+09  1.71924284e+09  2.92e-02 6.96e-08  1.69e+01    58s
  45   1.69510755e+09  1.71554349e+09  2.09e-02 6.14e-08  1.34e+01    59s
  46   1.69613528e+09  1.71308089e+09  1.70e-02 5.65e-08  1.11e+01    60s
  47   1.69735174e+09  1.71178443e+09  1.32e-02 4.77e-08  9.46e+00    60s
  48   1.69816243e+09  1.70997282e+09  1.12e-02 4.67e-08  7.75e+00    61s
  49   1.69915445e+09  1.70898240e+09  8.90e-03 4.27e-08  6.45e+00    61s
  50   1.70009869e+09  1.70752973e+09  6.91e-03 3.11e-08  4.87e+00    62s
  51   1.70064093e+09  1.70727551e+09  5.80e-03 3.95e-08  4.35e+00    62s
  52   1.70163859e+09  1.70592987e+09  3.77e-03 4.59e-08  2.81e+00    63s
  53   1.70223460e+09  1.70499388e+09  2.59e-03 5.87e-08  1.81e+00    63s
  54   1.70267418e+09  1.70437187e+09  1.75e-03 4.37e-08  1.12e+00    64s
  55   1.70307686e+09  1.70395975e+09  9.92e-04 4.17e-08  5.81e-01    64s
  56   1.70331296e+09  1.70378900e+09  5.69e-04 8.07e-08  3.14e-01    65s
  57   1.70345017e+09  1.70367845e+09  3.24e-04 7.16e-08  1.51e-01    65s
  58   1.70358438e+09  1.70365376e+09  8.39e-05 6.45e-08  4.58e-02    65s
  59   1.70359114e+09  1.70364014e+09  7.21e-05 7.33e-08  3.24e-02    66s
  60   1.70360060e+09  1.70363493e+09  5.53e-05 5.34e-08  2.28e-02    66s
  61   1.70362459e+09  1.70363335e+09  1.42e-05 8.87e-08  5.81e-03    67s
  62   1.70363182e+09  1.70363275e+09  1.46e-06 7.11e-08  6.18e-04    67s
  63   1.70363267e+09  1.70363271e+09  5.98e-08 6.89e-08  2.57e-05    67s
  64   1.70363271e+09  1.70363271e+09  4.20e-08 6.82e-08  2.88e-06    68s
  65   1.70363271e+09  1.70363271e+09  1.17e-08 8.34e-08  4.14e-07    68s
  66   1.70363271e+09  1.70363271e+09  9.28e-09 6.54e-08  3.31e-07    69s

Barrier solved model in 66 iterations and 68.81 seconds (62.17 work units)
Optimal objective 1.70363271e+09


Root crossover log...

   23967 DPushes remaining with DInf 0.0000000e+00                69s
       0 DPushes remaining with DInf 0.0000000e+00                69s

    1470 PPushes remaining with PInf 2.5293176e-03                69s
       0 PPushes remaining with PInf 0.0000000e+00                69s

  Push phase complete: Pinf 0.0000000e+00, Dinf 2.3197715e+03     69s


Root simplex log...

Iteration    Objective       Primal Inf.    Dual Inf.      Time
   25375    1.7036327e+09   0.000000e+00   2.319771e+03     69s
   25388    1.7036327e+09   0.000000e+00   0.000000e+00     70s
Concurrent spin time: 0.01s

Solved with barrier
   25388    1.7036327e+09   0.000000e+00   7.276544e+03     70s
   25390    1.7036327e+09   0.000000e+00   0.000000e+00     70s
Extra simplex iterations after uncrush: 2

Root relaxation: objective 1.703633e+09, 25390 iterations, 39.10 seconds (24.46 work units)

    Nodes    |    Current Node    |     Objective Bounds      |     Work
 Expl Unexpl |  Obj  Depth IntInf | Incumbent    BestBd   Gap | It/Node Time

     0     0 1.7036e+09    0  241          - 1.7036e+09      -     -   73s
H    0     0                    1.676614e+09 1.7036e+09  1.61%     -  102s
H    0     0                    1.677011e+09 1.7036e+09  1.59%     -  186s
     0     0 1.7036e+09    0  253 1.6770e+09 1.7036e+09  1.59%     -  198s
H    0     0                    1.695501e+09 1.7036e+09  0.48%     -  378s
     0     0 1.7036e+09    0  253 1.6955e+09 1.7036e+09  0.48%     -  379s
     0     0 1.7036e+09    0  261 1.6955e+09 1.7036e+09  0.48%     -  385s
     0     0 1.7036e+09    0  261 1.6955e+09 1.7036e+09  0.48%     -  440s
     0     0 1.7036e+09    0  263 1.6955e+09 1.7036e+09  0.48%     -  445s
     0     0 1.7036e+09    0  261 1.6955e+09 1.7036e+09  0.48%     -  455s
     0     0 1.7036e+09    0  274 1.6955e+09 1.7036e+09  0.48%     -  459s
     0     0 1.7036e+09    0  276 1.6955e+09 1.7036e+09  0.48%     -  471s
     0     0 1.7036e+09    0  272 1.6955e+09 1.7036e+09  0.48%     -  475s
     0     0 1.7036e+09    0  277 1.6955e+09 1.7036e+09  0.48%     -  482s
     0     0 1.7036e+09    0  273 1.6955e+09 1.7036e+09  0.48%     -  487s
     0     0 1.7036e+09    0  260 1.6955e+09 1.7036e+09  0.48%     -  496s
     0     2 1.7036e+09    0  252 1.6955e+09 1.7036e+09  0.48%     -  686s
     1     4 1.7036e+09    1  261 1.6955e+09 1.7036e+09  0.48%  5966  696s
     3     8 1.7036e+09    2  259 1.6955e+09 1.7036e+09  0.48%  2095  709s
     7    16 1.7036e+09    3  265 1.6955e+09 1.7036e+09  0.48%  1064  726s
    15    32 1.7036e+09    4  261 1.6955e+09 1.7036e+09  0.48%   719  750s
    31    52 1.7036e+09    5  270 1.6955e+09 1.7036e+09  0.48%   606  785s
    51    72 1.7036e+09    6  283 1.6955e+09 1.7036e+09  0.48%   518  987s
H   52    72                    1.696188e+09 1.7036e+09  0.44%   508  989s
H   62    72                    1.696708e+09 1.7036e+09  0.41%   520  990s
    71    92 1.7036e+09    6  227 1.6967e+09 1.7036e+09  0.41%   523 1481s
    91   112 1.7036e+09    7  286 1.6967e+09 1.7036e+09  0.41%   500 1709s
   111   146 1.7036e+09    7  236 1.6967e+09 1.7036e+09  0.41%   469 1740s
   145   260 1.7036e+09    8  252 1.6967e+09 1.7036e+09  0.41%   419 1820s
   259   727 1.7036e+09   10  214 1.6967e+09 1.7036e+09  0.41%   419 2053s
   754  1450 1.7035e+09   21  179 1.6967e+09 1.7036e+09  0.41%   256 2333s
  1522  2213 1.7035e+09   56  132 1.6967e+09 1.7036e+09  0.41%   186 2515s
  2322  2932 1.7035e+09   94  122 1.6967e+09 1.7036e+09  0.41%   143 2658s
  3106  3621 1.7035e+09  132   96 1.6967e+09 1.7036e+09  0.41%   122 2773s
  3885  4355 1.7035e+09  170   84 1.6967e+09 1.7036e+09  0.41%   109 2889s
  4661  5083 1.7034e+09  205   90 1.6967e+09 1.7036e+09  0.41%  99.4 3003s
  5410  5788 1.7033e+09  243  109 1.6967e+09 1.7036e+09  0.41%  91.4 3096s
  6179  6496 1.7033e+09  280  111 1.6967e+09 1.7036e+09  0.41%  84.7 3175s
  6946  7213 1.7033e+09  320   92 1.6967e+09 1.7036e+09  0.41%  78.3 3264s
  7695  7932 1.7032e+09  357   92 1.6967e+09 1.7036e+09  0.41%  74.0 3342s
  8434  8633 1.7032e+09  397   76 1.6967e+09 1.7036e+09  0.41%  70.0 3415s
  9149  9313 1.7032e+09  437   75 1.6967e+09 1.7036e+09  0.41%  66.8 3491s
  9866 10035 1.7032e+09  477   85 1.6967e+09 1.7036e+09  0.41%  64.2 3560s
 10601 10748 1.7032e+09  517   70 1.6967e+09 1.7036e+09  0.41%  61.7 3630s
 11354 11428 1.7032e+09  557   78 1.6967e+09 1.7036e+09  0.41%  59.4 3701s
 12086 11429 1.7031e+09  366  260 1.6967e+09 1.7036e+09  0.41%  57.6 8976s
H12087 10858                    1.696729e+09 1.7036e+09  0.41%  57.6 9100s
H12087 10315                    1.696765e+09 1.7036e+09  0.40%  57.6 9117s
 12088 10315 1.7035e+09   63  223 1.6968e+09 1.7036e+09  0.40%  57.6 9126s
 12089 10316 1.7035e+09   81  216 1.6968e+09 1.7036e+09  0.40%  57.6 9276s
H12089  9800                    1.697265e+09 1.7036e+09  0.37%  57.6 9312s
 12090  9801 1.7032e+09  243  246 1.6973e+09 1.7036e+09  0.37%  57.6 9316s
 12091  9801 1.7033e+09  348  293 1.6973e+09 1.7036e+09  0.37%  57.6 9334s
 12092  9802 1.7034e+09  126  274 1.6973e+09 1.7036e+09  0.37%  57.6 9349s
 12093  9803 1.7034e+09  123  288 1.6973e+09 1.7036e+09  0.37%  57.6 9354s
 12094  9803 1.7031e+09  420  266 1.6973e+09 1.7036e+09  0.37%  57.6 9367s
 12095  9804 1.7033e+09  228  271 1.6973e+09 1.7036e+09  0.37%  57.6 9383s
 12096  9805 1.7005e+09  228  261 1.6973e+09 1.7036e+09  0.37%  57.6 9427s
 12097  9805 1.7034e+09  137  232 1.6973e+09 1.7036e+09  0.37%  57.6 9447s
 12098  9806 1.7033e+09  367  260 1.6973e+09 1.7036e+09  0.37%  57.6 9456s
 12099  9807 1.7034e+09  149  263 1.6973e+09 1.7036e+09  0.37%  57.6 9472s
 12100  9807 1.6973e+09  366  247 1.6973e+09 1.7035e+09  0.37%  57.6 9563s
 12101  9808 1.7022e+09  205  269 1.6973e+09 1.7035e+09  0.37%  57.6 9567s
 12102  9809 1.7035e+09   13  279 1.6973e+09 1.7035e+09  0.37%  57.6 9587s
 12103  9809 1.7031e+09  475  260 1.6973e+09 1.7035e+09  0.37%  57.6 9614s
 12104  9810 1.7030e+09  358  274 1.6973e+09 1.7035e+09  0.37%  57.6 9630s
 12105  9811 1.7033e+09  191  251 1.6973e+09 1.7035e+09  0.37%  57.6 9653s
 12106  9811 1.7035e+09   47  241 1.6973e+09 1.7035e+09  0.37%  57.5 9672s
 12107  9812 1.7035e+09   25  230 1.6973e+09 1.7035e+09  0.37%  57.5 9699s
 12108  9813 1.7033e+09  144  254 1.6973e+09 1.7035e+09  0.37%  57.5 9714s
 12109  9813 1.7034e+09   87  246 1.6973e+09 1.7035e+09  0.37%  57.5 9735s
 12111  9815 1.7033e+09  203  279 1.6973e+09 1.7035e+09  0.37%  57.5 9755s
 12112  9815 1.7031e+09  486  250 1.6973e+09 1.7035e+09  0.37%  57.5 9762s
 12113  9816 1.7031e+09  287  263 1.6973e+09 1.7035e+09  0.37%  57.5 9778s
 12114  9817 1.7030e+09  580  238 1.6973e+09 1.7035e+09  0.37%  57.5 9812s
 12115  9817 1.7031e+09  368  257 1.6973e+09 1.7035e+09  0.37%  57.5 9844s
 12116  9818 1.7026e+09  203  255 1.6973e+09 1.7035e+09  0.37%  57.5 9849s
 12117  9819 1.7030e+09  481  272 1.6973e+09 1.7035e+09  0.37%  57.5 9855s
 12118  9819 1.7008e+09  295  258 1.6973e+09 1.7035e+09  0.37%  57.5 9869s
 12119  9820 1.7032e+09  260  267 1.6973e+09 1.7035e+09  0.37%  57.5 9894s
 12120  9821 1.7035e+09   61  277 1.6973e+09 1.7035e+09  0.37%  57.5 9901s
 12121  9821 1.7031e+09  196  276 1.6973e+09 1.7035e+09  0.37%  57.5 9920s
 12122  9822 1.7032e+09  372  285 1.6973e+09 1.7035e+09  0.37%  57.5 9945s
 12123  9823 1.7032e+09  436  287 1.6973e+09 1.7035e+09  0.37%  57.5 9961s
 12124  9823 1.7034e+09  237  300 1.6973e+09 1.7035e+09  0.37%  57.5 9985s
 12125  9824 1.7034e+09  130  274 1.6973e+09 1.7035e+09  0.37%  57.5 9992s
 12126  9825 1.7034e+09  153  275 1.6973e+09 1.7035e+09  0.37%  57.5 10006s
 12127  9825 1.7035e+09  100  258 1.6973e+09 1.7035e+09  0.37%  57.4 10073s
 12128  9826 1.7032e+09  263  276 1.6973e+09 1.7035e+09  0.37%  57.4 10092s
 12129  9827 1.7033e+09  600  267 1.6973e+09 1.7035e+09  0.37%  57.4 10111s
 12132  9830 1.7033e+09  278  260 1.6973e+09 1.7035e+09  0.37%  70.9 10124s
H12133  9339                    1.697277e+09 1.7035e+09  0.36%  70.9 10246s
H12133  8872                    1.697339e+09 1.7035e+09  0.36%  70.9 10260s
 12134  8872 1.7035e+09   12  222 1.6973e+09 1.7035e+09  0.36%  70.9 10265s
 12135  8873 1.7032e+09  181  192 1.6973e+09 1.7035e+09  0.36%  70.9 10432s
H12135  8429                    1.697339e+09 1.7035e+09  0.36%  70.9 10477s
 12136  8430 1.7032e+09  543  247 1.6973e+09 1.7035e+09  0.36%  70.9 10504s
 12137  8430 1.7031e+09  370  196 1.6973e+09 1.7035e+09  0.36%  70.8 10525s
 12138  8431 1.7031e+09  405  252 1.6973e+09 1.7035e+09  0.36%  70.8 10544s
 12139  8432 1.7035e+09   26  255 1.6973e+09 1.7035e+09  0.36%  70.8 10559s
 12140  8432 1.7029e+09  632  277 1.6973e+09 1.7035e+09  0.36%  70.8 10586s
 12141  8433 1.7030e+09  483  270 1.6973e+09 1.7035e+09  0.36%  70.8 10594s
 12142  8434 1.7035e+09   26  276 1.6973e+09 1.7035e+09  0.36%  70.8 10598s
 12143  8434 1.7033e+09  267  292 1.6973e+09 1.7035e+09  0.36%  70.8 10617s
 12144  8435 1.7032e+09  256  288 1.6973e+09 1.7035e+09  0.36%  70.8 10652s
 12145  8436 1.7005e+09  171  279 1.6973e+09 1.7035e+09  0.36%  70.8 10658s
 12146  8436 1.7031e+09  281  276 1.6973e+09 1.7035e+09  0.36%  70.8 10675s
 12147  8437 1.7031e+09  394  264 1.6973e+09 1.7035e+09  0.36%  70.8 10705s
 12148  8438 1.7035e+09  153  270 1.6973e+09 1.7035e+09  0.36%  70.8 10723s
 12149  8438 1.7031e+09  557  266 1.6973e+09 1.7035e+09  0.36%  70.8 10760s
 12150  8439 1.7035e+09  112  268 1.6973e+09 1.7035e+09  0.36%  70.8 10776s

Cutting planes:
  Gomory: 2
  Cover: 11
  Implied bound: 4
  Clique: 1
  MIR: 20
  StrongCG: 2
  Flow cover: 29
  GUB cover: 3
  Zero half: 4
  Relax-and-lift: 1

Explored 12150 nodes (988486 simplex iterations) in 10800.67 seconds (9853.12 work units)
Thread count was 20 (of 40 available processors)

Solution count 10: 1.69734e+09 1.69734e+09 1.69728e+09 ... 1.67701e+09

Time limit reached
Best objective 1.697338831859e+09, best bound 1.703469899351e+09, gap 0.3612%
